projet_m2_wvcp/projet_m2_wvcp/original_wvcp_dzn/r03.clq.dzn
cliques=[{7,10,1,2,3,12,0,9,11,5,6,4,8},{7,10,1,2,3,12,0,9,11,5,6,4,8},{7,10,1,2,3,12,0,9,11,5,6,4,8},{7,10,1,2,3,12,0,9,11,5,6,4,8},{7,10,1,2,3,12,0,9,11,5,6,4,8},{7,10,1,2,3,12,0,9,11,5,6,4,8},{7,10,1,2,3,12,0,9,11,5,6,4,8},{37,7,97,114,72,82,48,135,17,26,66,88},{7,10,1,2,3,12,0,9,11,5,6,4,8},{7,10,1,2,3,12,0,9,11,5,6,4,8},{7,10,1,2,3,12,0,9,11,5,6,4,8},{7,10,1,2,3,12,0,9,11,5,6,4,8},{7,10,1,2,3,12,0,9,11,5,6,4,8},{112,22,95,3,13,33,77},{53,78,131,34,96,103,63,121,14,4},{65,15,104,80,54,133,24,122,6,46,35},{55,105,113,87,25,81,134,16,47,123,36},{37,7,97,114,72,82,48,135,17,26,66,88},{18,27,73,116,90,50,9,125,39},{29,92,57,98,83,118,137,108,11,19,75},{100,41,127,12,69,59,20,138,119},{28,29,22,25,27,30,24,26,23,21},{28,29,22,25,27,30,24,26,23,21},{28,29,22,25,27,30,24,26,23,21},{28,29,22,25,27,30,24,26,23,21},{55,105,113,87,25,81,134,16,47,123,36},{37,7,97,114,72,82,48,135,17,26,66,88},{28,29,22,25,27,30,24,26,23,21},{28,117,107,10,51,74,56,136,91},{28,29,22,25,27,30,24,26,23,21},{28,29,22,25,27,30,24,26,23,21},{41,37,34,32,33,36,40,39,35,31,38},{44,111,71,2,32,85,130,62},{41,37,34,32,33,36,40,39,35,31,38},{53,78,131,34,96,103,63,121,14,4},{65,15,104,80,54,133,24,122,6,46,35},{55,105,113,87,25,81,134,16,47,123,36},{37,7,97,114,72,82,48,135,17,26,66,88},{41,37,34,32,33,36,40,39,35,31,38},{41,37,34,32,33,36,40,39,35,31,38},{41,37,34,32,33,36,40,39,35,31,38},{41,37,34,32,33,36,40,39,35,31,38},{94,52,101,0,60,110,128,21,42,31},{76,102,129,1,120,70,61,84,43},{44,111,71,2,32,85,130,62},{44,51,48,49,47,50,45,43,42,46},{65,15,104,80,54,133,24,122,6,46,35},{55,105,113,87,25,81,134,16,47,123,36},{37,7,97,114,72,82,48,135,17,26,66,88},{44,51,48,49,47,50,45,43,42,46},{44,51,48,49,47,50,45,43,42,46},{28,117,107,10,51,74,56,136,91},{55,53,52,56,57,58,54,59},{53,78,131,34,96,103,63,121,14,4},{65,15,104,80,54,133,24,122,6,46,35},{55,105,113,87,25,81,134,16,47,123,36},{28,117,107,10,51,74,56,136,91},{29,92,57,98,83,118,137,108,11,19,75},{55,53,52,56,57,58,54,59},{55,53,52,56,57,58,54,59},{94,52,101,0,60,110,128,21,42,31},{76,102,129,1,120,70,61,84,43},{44,111,71,2,32,85,130,62},{53,78,131,34,96,103,63,121,14,4},{65,63,62,60,69,67,66,61,64,68},{65,15,104,80,54,133,24,122,6,46,35},{37,7,97,114,72,82,48,135,17,26,66,88},{65,63,62,60,69,67,66,61,64,68},{65,63,62,60,69,67,66,61,64,68},{100,41,127,12,69,59,20,138,119},{76,102,129,1,120,70,61,84,43},{44,111,71,2,32,85,130,62},{37,7,97,114,72,82,48,135,17,26,66,88},{18,27,73,116,90,50,9,125,39},{28,117,107,10,51,74,56,136,91},{29,92,57,98,83,118,137,108,11,19,75},{76,102,129,1,120,70,61,84,43},{79,76,78,82,81,80,83,77},{53,78,131,34,96,103,63,121,14,4},{79,76,78,82,81,80,83,77},{65,15,104,80,54,133,24,122,6,46,35},{55,105,113,87,25,81,134,16,47,123,36},{37,7,97,114,72,82,48,135,17,26,66,88},{79,76,78,82,81,80,83,77},{93,86,87,89,92,85,90,84,88,91},{93,86,87,89,92,85,90,84,88,91},{93,86,87,89,92,85,90,84,88,91},{55,105,113,87,25,81,134,16,47,123,36},{37,7,97,114,72,82,48,135,17,26,66,88},{93,86,87,89,92,85,90,84,88,91},{93,86,87,89,92,85,90,84,88,91},{28,117,107,10,51,74,56,136,91},{93,86,87,89,92,85,90,84,88,91},{93,86,87,89,92,85,90,84,88,91},{100,94,95,97,96,98,99},{100,94,95,97,96,98,99},{53,78,131,34,96,103,63,121,14,4},{37,7,97,114,72,82,48,135,17,26,66,88},{29,92,57,98,83,118,137,108,11,19,75},{100,94,95,97,96,98,99},{100,41,127,12,69,59,20,138,119},{102,104,105,107,101,106,103,108,109},{102,104,105,107,101,106,103,108,109},{53,78,131,34,96,103,63,121,14,4},{102,104,105,107,101,106,103,108,109},{55,105,113,87,25,81,134,16,47,123,36},{102,104,105,107,101,106,103,108,109},{28,117,107,10,51,74,56,136,91},{102,104,105,107,101,106,103,108,109},{102,104,105,107,101,106,103,108,109},{112,117,113,111,115,114,116,118,119,110},{112,117,113,111,115,114,116,118,119,110},{112,117,113,111,115,114,116,118,119,110},{55,105,113,87,25,81,134,16,47,123,36},{37,7,97,114,72,82,48,135,17,26,66,88},{112,117,113,111,115,114,116,118,119,110},{112,117,113,111,115,114,116,118,119,110},{112,117,113,111,115,114,116,118,119,110},{112,117,113,111,115,114,116,118,119,110},{112,117,113,111,115,114,116,118,119,110},{76,102,129,1,120,70,61,84,43},{53,78,131,34,96,103,63,121,14,4},{65,15,104,80,54,133,24,122,6,46,35},{55,105,113,87,25,81,134,16,47,123,36},{115,89,106,124,49,67,8,38},{18,27,73,116,90,50,9,125,39},{126,124,127,120,121,123,122,125},{100,41,127,12,69,59,20,138,119},{129,131,132,136,130,134,135,133,138,137,128},{129,131,132,136,130,134,135,133,138,137,128},{129,131,132,136,130,134,135,133,138,137,128},{129,131,132,136,130,134,135,133,138,137,128},{129,131,132,136,130,134,135,133,138,137,128},{129,131,132,136,130,134,135,133,138,137,128},{55,105,113,87,25,81,134,16,47,123,36},{37,7,97,114,72,82,48,135,17,26,66,88},{28,117,107,10,51,74,56,136,91},{129,131,132,136,130,134,135,133,138,137,128},{129,131,132,136,130,134,135,133,138,137,128}];
nr_cliques=139;
