projet_m2_wvcp/projet_m2_wvcp/original_wvcp_dzn/r03.dzn
name="r03";
nr_vertices=139;
nr_edges=1188;
neighborhoods=[{1,2,3,4,5,6,7,8,9,10,11,12,21,31,42,52,60,94,101,110,128},{0,2,3,4,5,6,7,8,9,10,11,12,43,61,70,76,84,102,120,129},{0,1,3,4,5,6,7,8,9,10,11,12,32,44,62,71,85,111,130},{0,1,2,4,5,6,7,8,9,10,11,12,13,22,33,77,95,112},{0,1,2,3,5,6,7,8,9,10,11,12,14,34,53,63,78,96,103,121,131},{0,1,2,3,4,6,7,8,9,10,11,12,23,45,64,79,86,132},{0,1,2,3,4,5,7,8,9,10,11,12,15,24,35,46,54,65,80,104,122,133},{0,1,2,3,4,5,6,8,9,10,11,12,17,26,37,48,66,72,82,88,97,114,135},{0,1,2,3,4,5,6,7,9,10,11,12,38,49,67,89,106,115,124},{0,1,2,3,4,5,6,7,8,10,11,12,18,27,39,50,73,90,116,125},{0,1,2,3,4,5,6,7,8,9,11,12,28,51,56,74,91,107,117,136},{0,1,2,3,4,5,6,7,8,9,10,12,19,29,57,75,83,92,98,108,118,137},{0,1,2,3,4,5,6,7,8,9,10,11,20,41,59,69,100,119,127,138},{3,14,15,16,17,18,19,20,22,33,77,95,112},{4,13,15,16,17,18,19,20,34,53,63,78,96,103,121,131},{6,13,14,16,17,18,19,20,24,35,46,54,65,80,104,122,133},{13,14,15,17,18,19,20,25,36,47,55,81,87,105,113,123,134},{7,13,14,15,16,18,19,20,26,37,48,66,72,82,88,97,114,135},{9,13,14,15,16,17,19,20,27,39,50,73,90,116,125},{11,13,14,15,16,17,18,20,29,57,75,83,92,98,108,118,137},{12,13,14,15,16,17,18,19,41,59,69,100,119,127,138},{0,22,23,24,25,26,27,28,29,30,31,42,52,60,94,101,110,128},{3,13,21,23,24,25,26,27,28,29,30,33,77,95,112},{5,21,22,24,25,26,27,28,29,30,45,64,79,86,132},{6,15,21,22,23,25,26,27,28,29,30,35,46,54,65,80,104,122,133},{16,21,22,23,24,26,27,28,29,30,36,47,55,81,87,105,113,123,134},{7,17,21,22,23,24,25,27,28,29,30,37,48,66,72,82,88,97,114,135},{9,18,21,22,23,24,25,26,28,29,30,39,50,73,90,116,125},{10,21,22,23,24,25,26,27,29,30,51,56,74,91,107,117,136},{11,19,21,22,23,24,25,26,27,28,30,57,75,83,92,98,108,118,137},{21,22,23,24,25,26,27,28,29,40,58,68,93,99,109,126},{0,21,32,33,34,35,36,37,38,39,40,41,42,52,60,94,101,110,128},{2,31,33,34,35,36,37,38,39,40,41,44,62,71,85,111,130},{3,13,22,31,32,34,35,36,37,38,39,40,41,77,95,112},{4,14,31,32,33,35,36,37,38,39,40,41,53,63,78,96,103,121,131},{6,15,24,31,32,33,34,36,37,38,39,40,41,46,54,65,80,104,122,133},{16,25,31,32,33,34,35,37,38,39,40,41,47,55,81,87,105,113,123,134},{7,17,26,31,32,33,34,35,36,38,39,40,41,48,66,72,82,88,97,114,135},{8,31,32,33,34,35,36,37,39,40,41,49,67,89,106,115,124},{9,18,27,31,32,33,34,35,36,37,38,40,41,50,73,90,116,125},{30,31,32,33,34,35,36,37,38,39,41,58,68,93,99,109,126},{12,20,31,32,33,34,35,36,37,38,39,40,59,69,100,119,127,138},{0,21,31,43,44,45,46,47,48,49,50,51,52,60,94,101,110,128},{1,42,44,45,46,47,48,49,50,51,61,70,76,84,102,120,129},{2,32,42,43,45,46,47,48,49,50,51,62,71,85,111,130},{5,23,42,43,44,46,47,48,49,50,51,64,79,86,132},{6,15,24,35,42,43,44,45,47,48,49,50,51,54,65,80,104,122,133},{16,25,36,42,43,44,45,46,48,49,50,51,55,81,87,105,113,123,134},{7,17,26,37,42,43,44,45,46,47,49,50,51,66,72,82,88,97,114,135},{8,38,42,43,44,45,46,47,48,50,51,67,89,106,115,124},{9,18,27,39,42,43,44,45,46,47,48,49,51,73,90,116,125},{10,28,42,43,44,45,46,47,48,49,50,56,74,91,107,117,136},{0,21,31,42,53,54,55,56,57,58,59,60,94,101,110,128},{4,14,34,52,54,55,56,57,58,59,63,78,96,103,121,131},{6,15,24,35,46,52,53,55,56,57,58,59,65,80,104,122,133},{16,25,36,47,52,53,54,56,57,58,59,81,87,105,113,123,134},{10,28,51,52,53,54,55,57,58,59,74,91,107,117,136},{11,19,29,52,53,54,55,56,58,59,75,83,92,98,108,118,137},{30,40,52,53,54,55,56,57,59,68,93,99,109,126},{12,20,41,52,53,54,55,56,57,58,69,100,119,127,138},{0,21,31,42,52,61,62,63,64,65,66,67,68,69,94,101,110,128},{1,43,60,62,63,64,65,66,67,68,69,70,76,84,102,120,129},{2,32,44,60,61,63,64,65,66,67,68,69,71,85,111,130},{4,14,34,53,60,61,62,64,65,66,67,68,69,78,96,103,121,131},{5,23,45,60,61,62,63,65,66,67,68,69,79,86,132},{6,15,24,35,46,54,60,61,62,63,64,66,67,68,69,80,104,122,133},{7,17,26,37,48,60,61,62,63,64,65,67,68,69,72,82,88,97,114,135},{8,38,49,60,61,62,63,64,65,66,68,69,89,106,115,124},{30,40,58,60,61,62,63,64,65,66,67,69,93,99,109,126},{12,20,41,59,60,61,62,63,64,65,66,67,68,100,119,127,138},{1,43,61,71,72,73,74,75,76,84,102,120,129},{2,32,44,62,70,72,73,74,75,85,111,130},{7,17,26,37,48,66,70,71,73,74,75,82,88,97,114,135},{9,18,27,39,50,70,71,72,74,75,90,116,125},{10,28,51,56,70,71,72,73,75,91,107,117,136},{11,19,29,57,70,71,72,73,74,83,92,98,108,118,137},{1,43,61,70,77,78,79,80,81,82,83,84,102,120,129},{3,13,22,33,76,78,79,80,81,82,83,95,112},{4,14,34,53,63,76,77,79,80,81,82,83,96,103,121,131},{5,23,45,64,76,77,78,80,81,82,83,86,132},{6,15,24,35,46,54,65,76,77,78,79,81,82,83,104,122,133},{16,25,36,47,55,76,77,78,79,80,82,83,87,105,113,123,134},{7,17,26,37,48,66,72,76,77,78,79,80,81,83,88,97,114,135},{11,19,29,57,75,76,77,78,79,80,81,82,92,98,108,118,137},{1,43,61,70,76,85,86,87,88,89,90,91,92,93,102,120,129},{2,32,44,62,71,84,86,87,88,89,90,91,92,93,111,130},{5,23,45,64,79,84,85,87,88,89,90,91,92,93,132},{16,25,36,47,55,81,84,85,86,88,89,90,91,92,93,105,113,123,134},{7,17,26,37,48,66,72,82,84,85,86,87,89,90,91,92,93,97,114,135},{8,38,49,67,84,85,86,87,88,90,91,92,93,106,115,124},{9,18,27,39,50,73,84,85,86,87,88,89,91,92,93,116,125},{10,28,51,56,74,84,85,86,87,88,89,90,92,93,107,117,136},{11,19,29,57,75,83,84,85,86,87,88,89,90,91,93,98,108,118,137},{30,40,58,68,84,85,86,87,88,89,90,91,92,99,109,126},{0,21,31,42,52,60,95,96,97,98,99,100,101,110,128},{3,13,22,33,77,94,96,97,98,99,100,112},{4,14,34,53,63,78,94,95,97,98,99,100,103,121,131},{7,17,26,37,48,66,72,82,88,94,95,96,98,99,100,114,135},{11,19,29,57,75,83,92,94,95,96,97,99,100,108,118,137},{30,40,58,68,93,94,95,96,97,98,100,109,126},{12,20,41,59,69,94,95,96,97,98,99,119,127,138},{0,21,31,42,52,60,94,102,103,104,105,106,107,108,109,110,128},{1,43,61,70,76,84,101,103,104,105,106,107,108,109,120,129},{4,14,34,53,63,78,96,101,102,104,105,106,107,108,109,121,131},{6,15,24,35,46,54,65,80,101,102,103,105,106,107,108,109,122,133},{16,25,36,47,55,81,87,101,102,103,104,106,107,108,109,113,123,134},{8,38,49,67,89,101,102,103,104,105,107,108,109,115,124},{10,28,51,56,74,91,101,102,103,104,105,106,108,109,117,136},{11,19,29,57,75,83,92,98,101,102,103,104,105,106,107,109,118,137},{30,40,58,68,93,99,101,102,103,104,105,106,107,108,126},{0,21,31,42,52,60,94,101,111,112,113,114,115,116,117,118,119,128},{2,32,44,62,71,85,110,112,113,114,115,116,117,118,119,130},{3,13,22,33,77,95,110,111,113,114,115,116,117,118,119},{16,25,36,47,55,81,87,105,110,111,112,114,115,116,117,118,119,123,134},{7,17,26,37,48,66,72,82,88,97,110,111,112,113,115,116,117,118,119,135},{8,38,49,67,89,106,110,111,112,113,114,116,117,118,119,124},{9,18,27,39,50,73,90,110,111,112,113,114,115,117,118,119,125},{10,28,51,56,74,91,107,110,111,112,113,114,115,116,118,119,136},{11,19,29,57,75,83,92,98,108,110,111,112,113,114,115,116,117,119,137},{12,20,41,59,69,100,110,111,112,113,114,115,116,117,118,127,138},{1,43,61,70,76,84,102,121,122,123,124,125,126,127,129},{4,14,34,53,63,78,96,103,120,122,123,124,125,126,127,131},{6,15,24,35,46,54,65,80,104,120,121,123,124,125,126,127,133},{16,25,36,47,55,81,87,105,113,120,121,122,124,125,126,127,134},{8,38,49,67,89,106,115,120,121,122,123,125,126,127},{9,18,27,39,50,73,90,116,120,121,122,123,124,126,127},{30,40,58,68,93,99,109,120,121,122,123,124,125,127},{12,20,41,59,69,100,119,120,121,122,123,124,125,126,138},{0,21,31,42,52,60,94,101,110,129,130,131,132,133,134,135,136,137,138},{1,43,61,70,76,84,102,120,128,130,131,132,133,134,135,136,137,138},{2,32,44,62,71,85,111,128,129,131,132,133,134,135,136,137,138},{4,14,34,53,63,78,96,103,121,128,129,130,132,133,134,135,136,137,138},{5,23,45,64,79,86,128,129,130,131,133,134,135,136,137,138},{6,15,24,35,46,54,65,80,104,122,128,129,130,131,132,134,135,136,137,138},{16,25,36,47,55,81,87,105,113,123,128,129,130,131,132,133,135,136,137,138},{7,17,26,37,48,66,72,82,88,97,114,128,129,130,131,132,133,134,136,137,138},{10,28,51,56,74,91,107,117,128,129,130,131,132,133,134,135,137,138},{11,19,29,57,75,83,92,98,108,118,128,129,130,131,132,133,134,135,136,138},{12,20,41,59,69,100,119,127,128,129,130,131,132,133,134,135,136,137}];
weights=[453,630,585,557,222,239,236,650,217,314,636,248,455,498,255,659,359,400,582,247,345,251,660,328,351,588,330,546,695,672,489,220,507,374,534,223,300,661,206,239,262,677,234,260,653,321,228,354,463,392,353,610,579,659,438,698,534,507,480,365,433,316,444,478,277,677,329,381,217,422,417,620,534,514,564,213,678,368,650,697,463,495,522,452,304,493,628,604,291,593,484,287,548,643,681,656,520,603,502,257,686,575,661,481,650,647,574,642,259,228,308,621,695,640,567,612,494,680,358,312,474,331,313,317,568,250,620,563,266,645,477,597,578,368,444,438,493,291,316];
